benchmark/results/graph__15-1000-0.10-03_2/graph__15-1000-0.10-03_2_QuintonOs_Benders_primal_sub.lp
\ This file has been generated by DOcplex
\ ENCODING=ISO-8859-1
\Problem name: Quinton Bounded Benders_primal_sub

Maximize
 obj: tau
Subject To
 c1: tau <= 0.001103752759
 c2: y_a0_proc_0 + y_a0_proc_1 + y_a0_proc_2 - tau = 0
 c3: y_a0_proc_0 <= 0
 c4: y_a0_proc_1 <= 0
 c5: y_a0_proc_2 <= 1
 c6: tau <= 0.001449275362
 c7: y_a1_proc_0 + y_a1_proc_1 + y_a1_proc_2 - tau = 0
 c8: y_a1_proc_0 <= 1
 c9: y_a1_proc_1 <= 0
 c10: y_a1_proc_2 <= 0
 c11: tau <= 0.001834862385
 c12: y_a2_proc_0 + y_a2_proc_2 - tau = 0
 c13: y_a2_proc_0 <= 1
 c14: y_a2_proc_2 <= 0
 c15: tau <= 0.001579778831
 c16: y_a3_proc_2 - tau = 0
 c17: y_a3_proc_2 <= 1
 c18: tau <= 0.001610305958
 c19: y_a4_proc_0 + y_a4_proc_2 - tau = 0
 c20: y_a4_proc_0 <= 0
 c21: y_a4_proc_2 <= 1
 c22: tau <= 0.000807754443
 c23: y_a5_proc_0 + y_a5_proc_2 - tau = 0
 c24: y_a5_proc_0 <= 1
 c25: y_a5_proc_2 <= 0
 c26: tau <= 0.001046025105
 c27: y_a6_proc_0 + y_a6_proc_1 + y_a6_proc_2 - tau = 0
 c28: y_a6_proc_0 <= 0
 c29: y_a6_proc_1 <= 0
 c30: y_a6_proc_2 <= 1
 c31: tau <= 0.000909090909
 c32: y_a7_proc_0 + y_a7_proc_2 - tau = 0
 c33: y_a7_proc_0 <= 0
 c34: y_a7_proc_2 <= 1
 c35: tau <= 0.001141552511
 c36: y_a8_proc_0 + y_a8_proc_1 - tau = 0
 c37: y_a8_proc_0 <= 0
 c38: y_a8_proc_1 <= 1
 c39: tau <= 0.002777777778
 c40: y_a9_proc_0 + y_a9_proc_1 + y_a9_proc_2 - tau = 0
 c41: y_a9_proc_0 <= 0
 c42: y_a9_proc_1 <= 1
 c43: y_a9_proc_2 <= 0
 c44: tau <= 0.001190476190
 c45: y_a10_proc_0 + y_a10_proc_1 + y_a10_proc_2 - tau = 0
 c46: y_a10_proc_0 <= 0
 c47: y_a10_proc_1 <= 0
 c48: y_a10_proc_2 <= 1
 c49: tau <= 0.001153402537
 c50: y_a11_proc_0 + y_a11_proc_1 + y_a11_proc_2 - tau = 0
 c51: y_a11_proc_0 <= 0
 c52: y_a11_proc_1 <= 1
 c53: y_a11_proc_2 <= 0
 c54: tau <= 0.000888099467
 c55: y_a12_proc_1 - tau = 0
 c56: y_a12_proc_1 <= 1
 c57: tau <= 0.002164502165
 c58: y_a13_proc_0 + y_a13_proc_1 + y_a13_proc_2 - tau = 0
 c59: y_a13_proc_0 <= 1
 c60: y_a13_proc_1 <= 0
 c61: y_a13_proc_2 <= 0
 c62: tau <= 0.000844594595
 c63: y_a14_proc_0 + y_a14_proc_1 + y_a14_proc_2 - tau = 0
 c64: y_a14_proc_0 <= 0
 c65: y_a14_proc_1 <= 1
 c66: y_a14_proc_2 <= 0
 c67: u_a0 - u_a1 - 690 y_a1_proc_0 - 1128 y_a1_proc_1 - 1201 y_a1_proc_2 >= 0
 c68: u_a0 - u_a2 - 545 y_a2_proc_0 - 1273 y_a2_proc_2 >= -1
 c69: u_a3 - u_a0 - 996 y_a0_proc_0 - 837 y_a0_proc_1 - 906 y_a0_proc_2 >= 0
 c70: u_a2 - u_a4 - 1075 y_a4_proc_0 - 621 y_a4_proc_2 >= 0
 c71: u_a2 - u_a5 - 1238 y_a5_proc_0 - 1273 y_a5_proc_2 >= 0
 c72: u_a6 - u_a4 - 1075 y_a4_proc_0 - 621 y_a4_proc_2 >= 0
 c73: u_a7 - u_a2 - 545 y_a2_proc_0 - 1273 y_a2_proc_2 >= -1
 c74: u_a5 - u_a8 - 862 y_a8_proc_0 - 876 y_a8_proc_1 >= 0
 c75: u_a9 - u_a3 - 633 y_a3_proc_2 >= 0
 c76: u_a10 - u_a3 - 633 y_a3_proc_2 >= 0
 c77: u_a11 - u_a9 - 1239 y_a9_proc_0 - 360 y_a9_proc_1 - 939 y_a9_proc_2 >= 0
 c78: u_a7 - u_a12 - 1126 y_a12_proc_1 >= -1
 c79: u_a13 - u_a9 - 1239 y_a9_proc_0 - 360 y_a9_proc_1 - 939 y_a9_proc_2 >= 0
 c80: u_a10 - u_a14 - 1031 y_a14_proc_0 - 1184 y_a14_proc_1 - 1021 y_a14_proc_2
       >= 0
 c81: u_a2 - u_a8 - 862 y_a8_proc_0 - 876 y_a8_proc_1 >= 0
 c82: - 1181 y_a11_proc_0 - 867 y_a11_proc_1 - 1234 y_a11_proc_2 >= -1
 c83: u_a1 - u_a5 - 1238 y_a5_proc_0 - 1273 y_a5_proc_2 >= -1
 c84: u_a8 - u_a12 - 1126 y_a12_proc_1 >= -1
 c85: u_a12 - u_a10 - 982 y_a10_proc_0 - 846 y_a10_proc_1 - 840 y_a10_proc_2
       >= 0
 c86: u_a8 - u_a11 - 1181 y_a11_proc_0 - 867 y_a11_proc_1 - 1234 y_a11_proc_2
       >= -1
 c87: u_a4 - u_a13 - 462 y_a13_proc_0 - 393 y_a13_proc_1 - 949 y_a13_proc_2 >= 
      0
 c88: u_a4 - u_a10 - 982 y_a10_proc_0 - 846 y_a10_proc_1 - 840 y_a10_proc_2 >= 
      0
 c89: u_a14 - u_a8 - 862 y_a8_proc_0 - 876 y_a8_proc_1 >= 0
 c90: u_a8 - u_a13 - 462 y_a13_proc_0 - 393 y_a13_proc_1 - 949 y_a13_proc_2 >= 
      -2
 c91: u_a13 - u_a7 - 1045 y_a7_proc_0 - 1100 y_a7_proc_2 >= 0
 c92: u_a11 - u_a12 - 1126 y_a12_proc_1 >= -1
 c93: u_a1 - u_a6 - 885 y_a6_proc_0 - 1049 y_a6_proc_1 - 956 y_a6_proc_2 >= -1
 c94: u_a7 - u_a13 - 462 y_a13_proc_0 - 393 y_a13_proc_1 - 949 y_a13_proc_2 >= 
      -1
 c95: u_a1 - u_a0 - 906 y_a0_proc_2 >= -1291
 c96: u_a1 - u_a0 - 996 y_a0_proc_0 >= -1291
 c97: u_a1 - u_a0 - 837 y_a0_proc_1 >= -2564
 c98: u_a0 - u_a1 - 1201 y_a1_proc_2 >= -1256
 c99: u_a0 - u_a1 - 690 y_a1_proc_0 >= -1256
 c100: u_a0 - u_a1 - 1128 y_a1_proc_1 >= -2529
 c101: u_a2 - u_a0 - 906 y_a0_proc_2 >= -1291
 c102: u_a2 - u_a0 - 996 y_a0_proc_0 >= -1291
 c103: u_a0 - u_a2 - 1273 y_a2_proc_2 >= -1256
 c104: u_a0 - u_a2 - 545 y_a2_proc_0 >= -1256
 c105: u_a3 - u_a0 - 906 y_a0_proc_2 >= 0
 c106: u_a0 - u_a3 - 633 y_a3_proc_2 >= -1
 c107: u_a4 - u_a0 - 906 y_a0_proc_2 >= 0
 c108: u_a4 - u_a0 - 996 y_a0_proc_0 >= -2546
 c109: u_a0 - u_a4 - 621 y_a4_proc_2 >= -1
 c110: u_a0 - u_a4 - 1075 y_a4_proc_0 >= -2547
 c111: u_a5 - u_a0 - 906 y_a0_proc_2 >= -1291
 c112: u_a5 - u_a0 - 996 y_a0_proc_0 >= -1291
 c113: u_a0 - u_a5 - 1273 y_a5_proc_2 >= -1256
 c114: u_a0 - u_a5 - 1238 y_a5_proc_0 >= -1256
 c115: u_a6 - u_a0 - 906 y_a0_proc_2 >= 0
 c116: u_a6 - u_a0 - 996 y_a0_proc_0 >= -2546
 c117: u_a6 - u_a0 - 837 y_a0_proc_1 >= -2546
 c118: u_a0 - u_a6 - 956 y_a6_proc_2 >= -1
 c119: u_a0 - u_a6 - 885 y_a6_proc_0 >= -2547
 c120: u_a0 - u_a6 - 1049 y_a6_proc_1 >= -2547
 c121: u_a7 - u_a0 - 906 y_a0_proc_2 >= -1
 c122: u_a7 - u_a0 - 996 y_a0_proc_0 >= -2547
 c123: u_a0 - u_a7 - 1100 y_a7_proc_2 >= 0
 c124: u_a0 - u_a7 - 1045 y_a7_proc_0 >= -2546
 c125: u_a8 - u_a0 - 996 y_a0_proc_0 >= -2564
 c126: u_a8 - u_a0 - 837 y_a0_proc_1 >= -1291
 c127: u_a0 - u_a8 - 862 y_a8_proc_0 >= -2529
 c128: u_a0 - u_a8 - 876 y_a8_proc_1 >= -1256
 c129: u_a9 - u_a0 - 906 y_a0_proc_2 >= -1291
 c130: u_a9 - u_a0 - 996 y_a0_proc_0 >= -2564
 c131: u_a9 - u_a0 - 837 y_a0_proc_1 >= -1291
 c132: u_a0 - u_a9 - 939 y_a9_proc_2 >= -1256
 c133: u_a0 - u_a9 - 1239 y_a9_proc_0 >= -2529
 c134: u_a0 - u_a9 - 360 y_a9_proc_1 >= -1256
 c135: u_a10 - u_a0 - 906 y_a0_proc_2 >= 0
 c136: u_a10 - u_a0 - 996 y_a0_proc_0 >= -2546
 c137: u_a10 - u_a0 - 837 y_a0_proc_1 >= -2546
 c138: u_a0 - u_a10 - 840 y_a10_proc_2 >= -1
 c139: u_a0 - u_a10 - 982 y_a10_proc_0 >= -2547
 c140: u_a0 - u_a10 - 846 y_a10_proc_1 >= -2547
 c141: u_a11 - u_a0 - 906 y_a0_proc_2 >= -1256
 c142: u_a11 - u_a0 - 996 y_a0_proc_0 >= -2529
 c143: u_a11 - u_a0 - 837 y_a0_proc_1 >= -1256
 c144: u_a0 - u_a11 - 1234 y_a11_proc_2 >= -1291
 c145: u_a0 - u_a11 - 1181 y_a11_proc_0 >= -2564
 c146: u_a0 - u_a11 - 867 y_a11_proc_1 >= -1291
 c147: u_a12 - u_a0 - 837 y_a0_proc_1 >= -1291
 c148: u_a0 - u_a12 - 1126 y_a12_proc_1 >= -1256
 c149: u_a13 - u_a0 - 906 y_a0_proc_2 >= -1291
 c150: u_a13 - u_a0 - 996 y_a0_proc_0 >= -1291
 c151: u_a13 - u_a0 - 837 y_a0_proc_1 >= -2564
 c152: u_a0 - u_a13 - 949 y_a13_proc_2 >= -1256
 c153: u_a0 - u_a13 - 462 y_a13_proc_0 >= -1256
 c154: u_a0 - u_a13 - 393 y_a13_proc_1 >= -2529
 c155: u_a14 - u_a0 - 906 y_a0_proc_2 >= -1291
 c156: u_a14 - u_a0 - 996 y_a0_proc_0 >= -2564
 c157: u_a14 - u_a0 - 837 y_a0_proc_1 >= -1291
 c158: u_a0 - u_a14 - 1021 y_a14_proc_2 >= -1256
 c159: u_a0 - u_a14 - 1031 y_a14_proc_0 >= -2529
 c160: u_a0 - u_a14 - 1184 y_a14_proc_1 >= -1256
 c161: u_a2 - u_a1 - 1201 y_a1_proc_2 >= -2546
 c162: u_a2 - u_a1 - 690 y_a1_proc_0 >= 0
 c163: u_a1 - u_a2 - 1273 y_a2_proc_2 >= -2547
 c164: u_a1 - u_a2 - 545 y_a2_proc_0 >= -1
 c165: u_a3 - u_a1 - 1201 y_a1_proc_2 >= -1291
 c166: u_a1 - u_a3 - 633 y_a3_proc_2 >= -1256
 c167: u_a4 - u_a1 - 1201 y_a1_proc_2 >= -1291
 c168: u_a4 - u_a1 - 690 y_a1_proc_0 >= -1291
 c169: u_a1 - u_a4 - 621 y_a4_proc_2 >= -1256
 c170: u_a1 - u_a4 - 1075 y_a4_proc_0 >= -1256
 c171: u_a5 - u_a1 - 1201 y_a1_proc_2 >= -2546
 c172: u_a5 - u_a1 - 690 y_a1_proc_0 >= 0
 c173: u_a1 - u_a5 - 1273 y_a5_proc_2 >= -2547
 c174: u_a1 - u_a5 - 1238 y_a5_proc_0 >= -1
 c175: u_a6 - u_a1 - 1201 y_a1_proc_2 >= -1291
 c176: u_a6 - u_a1 - 690 y_a1_proc_0 >= -1291
 c177: u_a6 - u_a1 - 1128 y_a1_proc_1 >= -2564
 c178: u_a1 - u_a6 - 956 y_a6_proc_2 >= -1256
 c179: u_a1 - u_a6 - 885 y_a6_proc_0 >= -1256
 c180: u_a1 - u_a6 - 1049 y_a6_proc_1 >= -2529
 c181: u_a7 - u_a1 - 1201 y_a1_proc_2 >= -1291
 c182: u_a7 - u_a1 - 690 y_a1_proc_0 >= -1291
 c183: u_a1 - u_a7 - 1100 y_a7_proc_2 >= -1256
 c184: u_a1 - u_a7 - 1045 y_a7_proc_0 >= -1256
 c185: u_a8 - u_a1 - 690 y_a1_proc_0 >= -1256
 c186: u_a8 - u_a1 - 1128 y_a1_proc_1 >= -1256
 c187: u_a1 - u_a8 - 862 y_a8_proc_0 >= -1291
 c188: u_a1 - u_a8 - 876 y_a8_proc_1 >= -1291
 c189: u_a9 - u_a1 - 1201 y_a1_proc_2 >= -2564
 c190: u_a9 - u_a1 - 690 y_a1_proc_0 >= -1291
 c191: u_a9 - u_a1 - 1128 y_a1_proc_1 >= -1291
 c192: u_a1 - u_a9 - 939 y_a9_proc_2 >= -2529
 c193: u_a1 - u_a9 - 1239 y_a9_proc_0 >= -1256
 c194: u_a1 - u_a9 - 360 y_a9_proc_1 >= -1256
 c195: u_a10 - u_a1 - 1201 y_a1_proc_2 >= -1291
 c196: u_a10 - u_a1 - 690 y_a1_proc_0 >= -1291
 c197: u_a10 - u_a1 - 1128 y_a1_proc_1 >= -2564
 c198: u_a1 - u_a10 - 840 y_a10_proc_2 >= -1256
 c199: u_a1 - u_a10 - 982 y_a10_proc_0 >= -1256
 c200: u_a1 - u_a10 - 846 y_a10_proc_1 >= -2529
 c201: u_a11 - u_a1 - 1201 y_a1_proc_2 >= -2529
 c202: u_a11 - u_a1 - 690 y_a1_proc_0 >= -1256
 c203: u_a11 - u_a1 - 1128 y_a1_proc_1 >= -1256
 c204: u_a1 - u_a11 - 1234 y_a11_proc_2 >= -2564
 c205: u_a1 - u_a11 - 1181 y_a11_proc_0 >= -1291
 c206: u_a1 - u_a11 - 867 y_a11_proc_1 >= -1291
 c207: u_a12 - u_a1 - 1128 y_a1_proc_1 >= -1256
 c208: u_a1 - u_a12 - 1126 y_a12_proc_1 >= -1291
 c209: u_a13 - u_a1 - 1201 y_a1_proc_2 >= -2546
 c210: u_a13 - u_a1 - 690 y_a1_proc_0 >= 0
 c211: u_a13 - u_a1 - 1128 y_a1_proc_1 >= -2546
 c212: u_a1 - u_a13 - 949 y_a13_proc_2 >= -2547
 c213: u_a1 - u_a13 - 462 y_a13_proc_0 >= -1
 c214: u_a1 - u_a13 - 393 y_a13_proc_1 >= -2547
 c215: u_a14 - u_a1 - 1201 y_a1_proc_2 >= -2564
 c216: u_a14 - u_a1 - 690 y_a1_proc_0 >= -1291
 c217: u_a14 - u_a1 - 1128 y_a1_proc_1 >= -1291
 c218: u_a1 - u_a14 - 1021 y_a14_proc_2 >= -2529
 c219: u_a1 - u_a14 - 1031 y_a14_proc_0 >= -1256
 c220: u_a1 - u_a14 - 1184 y_a14_proc_1 >= -1256
 c221: u_a3 - u_a2 - 1273 y_a2_proc_2 >= -1291
 c222: u_a2 - u_a3 - 633 y_a3_proc_2 >= -1256
 c223: u_a4 - u_a2 - 1273 y_a2_proc_2 >= -1291
 c224: u_a4 - u_a2 - 545 y_a2_proc_0 >= -1291
 c225: u_a2 - u_a4 - 621 y_a4_proc_2 >= -1256
 c226: u_a2 - u_a4 - 1075 y_a4_proc_0 >= -1256
 c227: u_a5 - u_a2 - 1273 y_a2_proc_2 >= -2547
 c228: u_a5 - u_a2 - 545 y_a2_proc_0 >= -1
 c229: u_a2 - u_a5 - 1273 y_a5_proc_2 >= -2546
 c230: u_a2 - u_a5 - 1238 y_a5_proc_0 >= 0
 c231: u_a6 - u_a2 - 1273 y_a2_proc_2 >= -1256
 c232: u_a6 - u_a2 - 545 y_a2_proc_0 >= -1256
 c233: u_a2 - u_a6 - 956 y_a6_proc_2 >= -1291
 c234: u_a2 - u_a6 - 885 y_a6_proc_0 >= -1291
 c235: u_a7 - u_a2 - 1273 y_a2_proc_2 >= -1291
 c236: u_a7 - u_a2 - 545 y_a2_proc_0 >= -1291
 c237: u_a2 - u_a7 - 1100 y_a7_proc_2 >= -1256
 c238: u_a2 - u_a7 - 1045 y_a7_proc_0 >= -1256
 c239: u_a8 - u_a2 - 545 y_a2_proc_0 >= -1291
 c240: u_a2 - u_a8 - 862 y_a8_proc_0 >= -1256
 c241: u_a9 - u_a2 - 1273 y_a2_proc_2 >= -2564
 c242: u_a9 - u_a2 - 545 y_a2_proc_0 >= -1291
 c243: u_a2 - u_a9 - 939 y_a9_proc_2 >= -2529
 c244: u_a2 - u_a9 - 1239 y_a9_proc_0 >= -1256
 c245: u_a10 - u_a2 - 1273 y_a2_proc_2 >= -1291
 c246: u_a10 - u_a2 - 545 y_a2_proc_0 >= -1291
 c247: u_a2 - u_a10 - 840 y_a10_proc_2 >= -1256
 c248: u_a2 - u_a10 - 982 y_a10_proc_0 >= -1256
 c249: u_a11 - u_a2 - 1273 y_a2_proc_2 >= -2529
 c250: u_a11 - u_a2 - 545 y_a2_proc_0 >= -1256
 c251: u_a2 - u_a11 - 1234 y_a11_proc_2 >= -2564
 c252: u_a2 - u_a11 - 1181 y_a11_proc_0 >= -1291
 c253: u_a13 - u_a2 - 1273 y_a2_proc_2 >= -2547
 c254: u_a13 - u_a2 - 545 y_a2_proc_0 >= -1
 c255: u_a2 - u_a13 - 949 y_a13_proc_2 >= -2546
 c256: u_a2 - u_a13 - 462 y_a13_proc_0 >= 0
 c257: u_a14 - u_a2 - 1273 y_a2_proc_2 >= -2564
 c258: u_a14 - u_a2 - 545 y_a2_proc_0 >= -1291
 c259: u_a2 - u_a14 - 1021 y_a14_proc_2 >= -2529
 c260: u_a2 - u_a14 - 1031 y_a14_proc_0 >= -1256
 c261: u_a4 - u_a3 - 633 y_a3_proc_2 >= 0
 c262: u_a3 - u_a4 - 621 y_a4_proc_2 >= -1
 c263: u_a5 - u_a3 - 633 y_a3_proc_2 >= -1291
 c264: u_a3 - u_a5 - 1273 y_a5_proc_2 >= -1256
 c265: u_a6 - u_a3 - 633 y_a3_proc_2 >= 0
 c266: u_a3 - u_a6 - 956 y_a6_proc_2 >= -1
 c267: u_a7 - u_a3 - 633 y_a3_proc_2 >= -1
 c268: u_a3 - u_a7 - 1100 y_a7_proc_2 >= 0
 c269: u_a9 - u_a3 - 633 y_a3_proc_2 >= -1291
 c270: u_a3 - u_a9 - 939 y_a9_proc_2 >= -1256
 c271: u_a10 - u_a3 - 633 y_a3_proc_2 >= 0
 c272: u_a3 - u_a10 - 840 y_a10_proc_2 >= -1
 c273: u_a11 - u_a3 - 633 y_a3_proc_2 >= -1256
 c274: u_a3 - u_a11 - 1234 y_a11_proc_2 >= -1291
 c275: u_a13 - u_a3 - 633 y_a3_proc_2 >= -1291
 c276: u_a3 - u_a13 - 949 y_a13_proc_2 >= -1256
 c277: u_a14 - u_a3 - 633 y_a3_proc_2 >= -1256
 c278: u_a3 - u_a14 - 1021 y_a14_proc_2 >= -1291
 c279: u_a5 - u_a4 - 621 y_a4_proc_2 >= -1256
 c280: u_a5 - u_a4 - 1075 y_a4_proc_0 >= -1256
 c281: u_a4 - u_a5 - 1273 y_a5_proc_2 >= -1291
 c282: u_a4 - u_a5 - 1238 y_a5_proc_0 >= -1291
 c283: u_a6 - u_a4 - 621 y_a4_proc_2 >= 0
 c284: u_a6 - u_a4 - 1075 y_a4_proc_0 >= -2546
 c285: u_a4 - u_a6 - 956 y_a6_proc_2 >= -1
 c286: u_a4 - u_a6 - 885 y_a6_proc_0 >= -2547
 c287: u_a7 - u_a4 - 621 y_a4_proc_2 >= -1
 c288: u_a7 - u_a4 - 1075 y_a4_proc_0 >= -2547
 c289: u_a4 - u_a7 - 1100 y_a7_proc_2 >= 0
 c290: u_a4 - u_a7 - 1045 y_a7_proc_0 >= -2546
 c291: u_a8 - u_a4 - 1075 y_a4_proc_0 >= -2529
 c292: u_a4 - u_a8 - 862 y_a8_proc_0 >= -2564
 c293: u_a9 - u_a4 - 621 y_a4_proc_2 >= -1291
 c294: u_a9 - u_a4 - 1075 y_a4_proc_0 >= -2564
 c295: u_a4 - u_a9 - 939 y_a9_proc_2 >= -1256
 c296: u_a4 - u_a9 - 1239 y_a9_proc_0 >= -2529
 c297: u_a10 - u_a4 - 621 y_a4_proc_2 >= -1
 c298: u_a10 - u_a4 - 1075 y_a4_proc_0 >= -2547
 c299: u_a4 - u_a10 - 840 y_a10_proc_2 >= 0
 c300: u_a4 - u_a10 - 982 y_a10_proc_0 >= -2546
 c301: u_a11 - u_a4 - 621 y_a4_proc_2 >= -1291
 c302: u_a11 - u_a4 - 1075 y_a4_proc_0 >= -2564
 c303: u_a4 - u_a11 - 1234 y_a11_proc_2 >= -1256
 c304: u_a4 - u_a11 - 1181 y_a11_proc_0 >= -2529
 c305: u_a13 - u_a4 - 621 y_a4_proc_2 >= -1291
 c306: u_a13 - u_a4 - 1075 y_a4_proc_0 >= -1291
 c307: u_a4 - u_a13 - 949 y_a13_proc_2 >= -1256
 c308: u_a4 - u_a13 - 462 y_a13_proc_0 >= -1256
 c309: u_a14 - u_a4 - 621 y_a4_proc_2 >= -1256
 c310: u_a14 - u_a4 - 1075 y_a4_proc_0 >= -2529
 c311: u_a4 - u_a14 - 1021 y_a14_proc_2 >= -1291
 c312: u_a4 - u_a14 - 1031 y_a14_proc_0 >= -2564
 c313: u_a6 - u_a5 - 1273 y_a5_proc_2 >= -1291
 c314: u_a6 - u_a5 - 1238 y_a5_proc_0 >= -1291
 c315: u_a5 - u_a6 - 956 y_a6_proc_2 >= -1256
 c316: u_a5 - u_a6 - 885 y_a6_proc_0 >= -1256
 c317: u_a7 - u_a5 - 1273 y_a5_proc_2 >= -1256
 c318: u_a7 - u_a5 - 1238 y_a5_proc_0 >= -1256
 c319: u_a5 - u_a7 - 1100 y_a7_proc_2 >= -1291
 c320: u_a5 - u_a7 - 1045 y_a7_proc_0 >= -1291
 c321: u_a8 - u_a5 - 1238 y_a5_proc_0 >= -1291
 c322: u_a5 - u_a8 - 862 y_a8_proc_0 >= -1256
 c323: u_a9 - u_a5 - 1273 y_a5_proc_2 >= -2564
 c324: u_a9 - u_a5 - 1238 y_a5_proc_0 >= -1291
 c325: u_a5 - u_a9 - 939 y_a9_proc_2 >= -2529
 c326: u_a5 - u_a9 - 1239 y_a9_proc_0 >= -1256
 c327: u_a10 - u_a5 - 1273 y_a5_proc_2 >= -1291
 c328: u_a10 - u_a5 - 1238 y_a5_proc_0 >= -1291
 c329: u_a5 - u_a10 - 840 y_a10_proc_2 >= -1256
 c330: u_a5 - u_a10 - 982 y_a10_proc_0 >= -1256
 c331: u_a11 - u_a5 - 1273 y_a5_proc_2 >= -2529
 c332: u_a11 - u_a5 - 1238 y_a5_proc_0 >= -1256
 c333: u_a5 - u_a11 - 1234 y_a11_proc_2 >= -2564
 c334: u_a5 - u_a11 - 1181 y_a11_proc_0 >= -1291
 c335: u_a13 - u_a5 - 1273 y_a5_proc_2 >= -2547
 c336: u_a13 - u_a5 - 1238 y_a5_proc_0 >= -1
 c337: u_a5 - u_a13 - 949 y_a13_proc_2 >= -2546
 c338: u_a5 - u_a13 - 462 y_a13_proc_0 >= 0
 c339: u_a14 - u_a5 - 1273 y_a5_proc_2 >= -2564
 c340: u_a14 - u_a5 - 1238 y_a5_proc_0 >= -1291
 c341: u_a5 - u_a14 - 1021 y_a14_proc_2 >= -2529
 c342: u_a5 - u_a14 - 1031 y_a14_proc_0 >= -1256
 c343: u_a7 - u_a6 - 956 y_a6_proc_2 >= -1
 c344: u_a7 - u_a6 - 885 y_a6_proc_0 >= -2547
 c345: u_a6 - u_a7 - 1100 y_a7_proc_2 >= 0
 c346: u_a6 - u_a7 - 1045 y_a7_proc_0 >= -2546
 c347: u_a8 - u_a6 - 885 y_a6_proc_0 >= -2564
 c348: u_a8 - u_a6 - 1049 y_a6_proc_1 >= -1291
 c349: u_a6 - u_a8 - 862 y_a8_proc_0 >= -2529
 c350: u_a6 - u_a8 - 876 y_a8_proc_1 >= -1256
 c351: u_a9 - u_a6 - 956 y_a6_proc_2 >= -1291
 c352: u_a9 - u_a6 - 885 y_a6_proc_0 >= -2564
 c353: u_a9 - u_a6 - 1049 y_a6_proc_1 >= -1291
 c354: u_a6 - u_a9 - 939 y_a9_proc_2 >= -1256
 c355: u_a6 - u_a9 - 1239 y_a9_proc_0 >= -2529
 c356: u_a6 - u_a9 - 360 y_a9_proc_1 >= -1256
 c357: u_a10 - u_a6 - 956 y_a6_proc_2 >= -1
 c358: u_a10 - u_a6 - 885 y_a6_proc_0 >= -2547
 c359: u_a10 - u_a6 - 1049 y_a6_proc_1 >= -2547
 c360: u_a6 - u_a10 - 840 y_a10_proc_2 >= 0
 c361: u_a6 - u_a10 - 982 y_a10_proc_0 >= -2546
 c362: u_a6 - u_a10 - 846 y_a10_proc_1 >= -2546
 c363: u_a11 - u_a6 - 956 y_a6_proc_2 >= -1256
 c364: u_a11 - u_a6 - 885 y_a6_proc_0 >= -2529
 c365: u_a11 - u_a6 - 1049 y_a6_proc_1 >= -1256
 c366: u_a6 - u_a11 - 1234 y_a11_proc_2 >= -1291
 c367: u_a6 - u_a11 - 1181 y_a11_proc_0 >= -2564
 c368: u_a6 - u_a11 - 867 y_a11_proc_1 >= -1291
 c369: u_a12 - u_a6 - 1049 y_a6_proc_1 >= -1256
 c370: u_a6 - u_a12 - 1126 y_a12_proc_1 >= -1291
 c371: u_a13 - u_a6 - 956 y_a6_proc_2 >= -1291
 c372: u_a13 - u_a6 - 885 y_a6_proc_0 >= -1291
 c373: u_a13 - u_a6 - 1049 y_a6_proc_1 >= -2564
 c374: u_a6 - u_a13 - 949 y_a13_proc_2 >= -1256
 c375: u_a6 - u_a13 - 462 y_a13_proc_0 >= -1256
 c376: u_a6 - u_a13 - 393 y_a13_proc_1 >= -2529
 c377: u_a14 - u_a6 - 956 y_a6_proc_2 >= -1291
 c378: u_a14 - u_a6 - 885 y_a6_proc_0 >= -2564
 c379: u_a14 - u_a6 - 1049 y_a6_proc_1 >= -1291
 c380: u_a6 - u_a14 - 1021 y_a14_proc_2 >= -1256
 c381: u_a6 - u_a14 - 1031 y_a14_proc_0 >= -2529
 c382: u_a6 - u_a14 - 1184 y_a14_proc_1 >= -1256
 c383: u_a8 - u_a7 - 1045 y_a7_proc_0 >= -2564
 c384: u_a7 - u_a8 - 862 y_a8_proc_0 >= -2529
 c385: u_a9 - u_a7 - 1100 y_a7_proc_2 >= -1291
 c386: u_a9 - u_a7 - 1045 y_a7_proc_0 >= -2564
 c387: u_a7 - u_a9 - 939 y_a9_proc_2 >= -1256
 c388: u_a7 - u_a9 - 1239 y_a9_proc_0 >= -2529
 c389: u_a10 - u_a7 - 1100 y_a7_proc_2 >= 0
 c390: u_a10 - u_a7 - 1045 y_a7_proc_0 >= -2546
 c391: u_a7 - u_a10 - 840 y_a10_proc_2 >= -1
 c392: u_a7 - u_a10 - 982 y_a10_proc_0 >= -2547
 c393: u_a11 - u_a7 - 1100 y_a7_proc_2 >= -1291
 c394: u_a11 - u_a7 - 1045 y_a7_proc_0 >= -2564
 c395: u_a7 - u_a11 - 1234 y_a11_proc_2 >= -1256
 c396: u_a7 - u_a11 - 1181 y_a11_proc_0 >= -2529
 c397: u_a13 - u_a7 - 1100 y_a7_proc_2 >= -1291
 c398: u_a13 - u_a7 - 1045 y_a7_proc_0 >= -1291
 c399: u_a7 - u_a13 - 949 y_a13_proc_2 >= -1256
 c400: u_a7 - u_a13 - 462 y_a13_proc_0 >= -1256
 c401: u_a14 - u_a7 - 1100 y_a7_proc_2 >= -1291
 c402: u_a14 - u_a7 - 1045 y_a7_proc_0 >= -2564
 c403: u_a7 - u_a14 - 1021 y_a14_proc_2 >= -1256
 c404: u_a7 - u_a14 - 1031 y_a14_proc_0 >= -2529
 c405: u_a9 - u_a8 - 862 y_a8_proc_0 >= -2546
 c406: u_a9 - u_a8 - 876 y_a8_proc_1 >= 0
 c407: u_a8 - u_a9 - 1239 y_a9_proc_0 >= -2547
 c408: u_a8 - u_a9 - 360 y_a9_proc_1 >= -1
 c409: u_a10 - u_a8 - 862 y_a8_proc_0 >= -2564
 c410: u_a10 - u_a8 - 876 y_a8_proc_1 >= -1291
 c411: u_a8 - u_a10 - 982 y_a10_proc_0 >= -2529
 c412: u_a8 - u_a10 - 846 y_a10_proc_1 >= -1256
 c413: u_a11 - u_a8 - 862 y_a8_proc_0 >= -2546
 c414: u_a11 - u_a8 - 876 y_a8_proc_1 >= 0
 c415: u_a8 - u_a11 - 1181 y_a11_proc_0 >= -2547
 c416: u_a8 - u_a11 - 867 y_a11_proc_1 >= -1
 c417: u_a12 - u_a8 - 876 y_a8_proc_1 >= 0
 c418: u_a8 - u_a12 - 1126 y_a12_proc_1 >= -1
 c419: u_a13 - u_a8 - 862 y_a8_proc_0 >= -1291
 c420: u_a13 - u_a8 - 876 y_a8_proc_1 >= -1291
 c421: u_a8 - u_a13 - 462 y_a13_proc_0 >= -1256
 c422: u_a8 - u_a13 - 393 y_a13_proc_1 >= -1256
 c423: u_a14 - u_a8 - 862 y_a8_proc_0 >= -2546
 c424: u_a14 - u_a8 - 876 y_a8_proc_1 >= 0
 c425: u_a8 - u_a14 - 1031 y_a14_proc_0 >= -2547
 c426: u_a8 - u_a14 - 1184 y_a14_proc_1 >= -1
 c427: u_a10 - u_a9 - 939 y_a9_proc_2 >= -1291
 c428: u_a10 - u_a9 - 1239 y_a9_proc_0 >= -2564
 c429: u_a10 - u_a9 - 360 y_a9_proc_1 >= -1291
 c430: u_a9 - u_a10 - 840 y_a10_proc_2 >= -1256
 c431: u_a9 - u_a10 - 982 y_a10_proc_0 >= -2529
 c432: u_a9 - u_a10 - 846 y_a10_proc_1 >= -1256
 c433: u_a11 - u_a9 - 939 y_a9_proc_2 >= -2546
 c434: u_a11 - u_a9 - 1239 y_a9_proc_0 >= -2546
 c435: u_a11 - u_a9 - 360 y_a9_proc_1 >= 0
 c436: u_a9 - u_a11 - 1234 y_a11_proc_2 >= -2547
 c437: u_a9 - u_a11 - 1181 y_a11_proc_0 >= -2547
 c438: u_a9 - u_a11 - 867 y_a11_proc_1 >= -1
 c439: u_a12 - u_a9 - 360 y_a9_proc_1 >= 0
 c440: u_a9 - u_a12 - 1126 y_a12_proc_1 >= -1
 c441: u_a13 - u_a9 - 939 y_a9_proc_2 >= -2564
 c442: u_a13 - u_a9 - 1239 y_a9_proc_0 >= -1291
 c443: u_a13 - u_a9 - 360 y_a9_proc_1 >= -1291
 c444: u_a9 - u_a13 - 949 y_a13_proc_2 >= -2529
 c445: u_a9 - u_a13 - 462 y_a13_proc_0 >= -1256
 c446: u_a9 - u_a13 - 393 y_a13_proc_1 >= -1256
 c447: u_a14 - u_a9 - 939 y_a9_proc_2 >= -2547
 c448: u_a14 - u_a9 - 1239 y_a9_proc_0 >= -2547
 c449: u_a14 - u_a9 - 360 y_a9_proc_1 >= -1
 c450: u_a9 - u_a14 - 1021 y_a14_proc_2 >= -2546
 c451: u_a9 - u_a14 - 1031 y_a14_proc_0 >= -2546
 c452: u_a9 - u_a14 - 1184 y_a14_proc_1 >= 0
 c453: u_a11 - u_a10 - 840 y_a10_proc_2 >= -1291
 c454: u_a11 - u_a10 - 982 y_a10_proc_0 >= -2564
 c455: u_a11 - u_a10 - 846 y_a10_proc_1 >= -1291
 c456: u_a10 - u_a11 - 1234 y_a11_proc_2 >= -1256
 c457: u_a10 - u_a11 - 1181 y_a11_proc_0 >= -2529
 c458: u_a10 - u_a11 - 867 y_a11_proc_1 >= -1256
 c459: u_a12 - u_a10 - 846 y_a10_proc_1 >= -1291
 c460: u_a10 - u_a12 - 1126 y_a12_proc_1 >= -1256
 c461: u_a13 - u_a10 - 840 y_a10_proc_2 >= -1256
 c462: u_a13 - u_a10 - 982 y_a10_proc_0 >= -1256
 c463: u_a13 - u_a10 - 846 y_a10_proc_1 >= -2529
 c464: u_a10 - u_a13 - 949 y_a13_proc_2 >= -1291
 c465: u_a10 - u_a13 - 462 y_a13_proc_0 >= -1291
 c466: u_a10 - u_a13 - 393 y_a13_proc_1 >= -2564
 c467: u_a14 - u_a10 - 840 y_a10_proc_2 >= -1291
 c468: u_a14 - u_a10 - 982 y_a10_proc_0 >= -2564
 c469: u_a14 - u_a10 - 846 y_a10_proc_1 >= -1291
 c470: u_a10 - u_a14 - 1021 y_a14_proc_2 >= -1256
 c471: u_a10 - u_a14 - 1031 y_a14_proc_0 >= -2529
 c472: u_a10 - u_a14 - 1184 y_a14_proc_1 >= -1256
 c473: u_a12 - u_a11 - 867 y_a11_proc_1 >= -1
 c474: u_a11 - u_a12 - 1126 y_a12_proc_1 >= 0
 c475: u_a13 - u_a11 - 1234 y_a11_proc_2 >= -2564
 c476: u_a13 - u_a11 - 1181 y_a11_proc_0 >= -1291
 c477: u_a13 - u_a11 - 867 y_a11_proc_1 >= -1291
 c478: u_a11 - u_a13 - 949 y_a13_proc_2 >= -2529
 c479: u_a11 - u_a13 - 462 y_a13_proc_0 >= -1256
 c480: u_a11 - u_a13 - 393 y_a13_proc_1 >= -1256
 c481: u_a14 - u_a11 - 1234 y_a11_proc_2 >= -2547
 c482: u_a14 - u_a11 - 1181 y_a11_proc_0 >= -2547
 c483: u_a14 - u_a11 - 867 y_a11_proc_1 >= -1
 c484: u_a11 - u_a14 - 1021 y_a14_proc_2 >= -2546
 c485: u_a11 - u_a14 - 1031 y_a14_proc_0 >= -2546
 c486: u_a11 - u_a14 - 1184 y_a14_proc_1 >= 0
 c487: u_a13 - u_a12 - 1126 y_a12_proc_1 >= -1291
 c488: u_a12 - u_a13 - 393 y_a13_proc_1 >= -1256
 c489: u_a14 - u_a12 - 1126 y_a12_proc_1 >= -1
 c490: u_a12 - u_a14 - 1184 y_a14_proc_1 >= 0
 c491: u_a14 - u_a13 - 949 y_a13_proc_2 >= -2529
 c492: u_a14 - u_a13 - 462 y_a13_proc_0 >= -1256
 c493: u_a14 - u_a13 - 393 y_a13_proc_1 >= -1256
 c494: u_a13 - u_a14 - 1021 y_a14_proc_2 >= -2564
 c495: u_a13 - u_a14 - 1031 y_a14_proc_0 >= -1291
 c496: u_a13 - u_a14 - 1184 y_a14_proc_1 >= -1291

Bounds
End
